7 965
528 7 504 7 413 7 254 9 80 11 923 15 769 20
525 7 504 7 362 7 209 9 25 11 818 15 619 21
525 7 482 7 365 7 212 9 29 11 823 18
535 8 494 8 422 11
525 7 477 7 391 7 244 9 79 11 2 15
520 7 476 7 355 7 196 12
525 7 482 7 394 7 212 9 29 11 822 15 623 21
